GeneratedTests/Random_9/Random_9_3.tsp
NAME: Random_9_3
TYPE: TSP
DIMENSION: 9
EDGE_WEIGHT_TYPE: EUC_2D
NODE_COORD_SECTION
1 13.914487 10.840739
2 14.631526 18.237907
3 19.932478 22.376017
4 1.6046262 4.764638
5 12.512696 20.90901
6 14.078583 4.3340664
7 20.886961 3.4716787
8 19.674313 1.4721175
9 13.150852 5.222496
EOF
