GeneratedTests/Random_9/Random_9_3.txt
NAME: Random_9_3
TYPE: TSP
DIMENSION: 9
EDGE_WEIGHT_TYPE: EUC_2D
NODE_COORD_SECTION
1 5.09768 13.344906
2 17.516607 24.30252
3 0.17444444 22.055058
4 22.476385 4.0603166
5 0.070531905 2.0084348
6 2.6257544 11.93258
7 19.102213 14.685695
8 0.48568958 6.7263365
9 6.7477293 21.178139
EOF
